unsat
(:max-memory                   18.14
 :memory                       18.04
 :nlsat-conflicts              28
 :nlsat-decisions              3
 :nlsat-irrational-assignments 1
 :nlsat-propagations           84
 :nlsat-stages                 26
 :num-allocs                   35831
 :rlimit-count                 15662
 :time                         0.01
 :total-time                   0.02)
